
 102   30
  10   10   10   10   10   10   10   10   10   10   10   10   10   10   10   10   10   10   10   10   10   10   10   10   10   10   10   10   10   10

   0   0   0   0   0   0   0   0   0   0   0   0   0   0   0   0   0   0   0   0   0   0   0   0   0   0   0   0   0   0   0  28 2 3 4 5 6 7 8 9 10 11 12 13 15 16 17 18 20 21 24 25 26 28 29 31 34 36 39 45 
   9   0   0   0   0   1   1   0   2   0   0   2   0   0   0   0   0   0   0   0   0   0   0   1   0   0   0   0   0   0   0  11 64 56 54 47 41 38 37 32 30 23 19 
   7   0   0   0   0   0   0   0   2   1   0   5   0   0   0   0   0   0   0   0   0   0   0   0   0   0   0   0   0   0   0  13 73 63 59 58 52 51 48 47 44 43 38 33 27 
   4   0   0   0   0   0   0   1   0   0   0   0   0   1   0   0   2   2   1   0   0   0   0   3   0   0   0   0   0   0   0  13 101 91 64 63 58 56 53 52 51 43 38 33 22 
   7   0   0   0   0   0   0   0   4   0   1   0   0   0   0   0   0   0   0   0   0   2   0   0   0   2   0   0   0   0   0   7 67 55 52 49 47 41 14 
   9   0   1   0   0   7   0   0   7   0   0   0   0   0   0   0   0   0   0   0   1   1   3   0   0   0   0   0   0   2   0  20 98 73 72 71 70 69 67 66 65 64 63 59 57 54 52 50 49 42 40 33 
   8   0   7   0   2   0   0   0   0   8   0   0   0   0   0   0   0   0   0   0   0   0   0   0   0   0   0   0   3   0   0  20 101 98 92 73 70 66 65 64 63 62 59 58 55 54 53 52 51 48 47 43 
   6   0   0   1   0   0   0   0   0   0   0   7   0   6   0   0   0   0   6   0   0   0   0   7   0   6   0   0   0   2   4  13 101 91 65 64 58 57 56 54 52 44 43 38 33 
   4   0   0   5   0   0   0   0   0   0   0   0   0   0   0   0   0   0   0   2   0   0   0   0   0   0   0   0   0   6   0  16 99 94 73 72 71 69 66 65 63 62 58 56 54 48 46 35 
   5   1   0   0   0   0   0   0   0   7   0   0   0   0   0   0   0   0   0   0   8   0   0   0   0   0   0   0   0   0   0  18 101 100 98 96 95 74 72 69 66 65 64 61 57 56 52 51 47 38 
   9   0   0   0   0   0   0   0   0   6   0  10   3   0   0   0   0   0   0   4   0   0   0   0   0   0   0   0   0   0   0  20 101 100 98 97 96 94 90 73 72 70 67 65 63 62 61 59 56 55 52 42 
   4   0   6   0   0   0   0   0   8   0   0   0   0   0   0   0   0   0   0   0   0   0   0   0   0   0   0   0   0   0   0  16 101 100 97 96 95 73 71 69 66 62 54 52 49 47 43 42 
  10   0   0   0   0   0   0   0   0   0   0   0   0   0   0   0   6   0   0   0   0   0   0  10   0   0   0   0   0   0   0  13 97 94 90 72 71 66 62 61 56 53 52 42 30 
   3   0   0   0   0   0   0   0   0   0   0   0   0   0   0   1   0   0   0   0   0   0   0   0   0   6   0   2   0   0   0  10 99 91 71 63 62 61 58 53 43 30 
   5   9   0   0   0   0   0   4   0   0   0   3   0   0   0   0   5   0   7   5   0   0   0   0   0   0   0   0   0   0   8  18 99 98 97 95 92 80 71 70 68 66 65 62 61 60 59 58 48 47 
   4   0   0   0   0   0   0   0   0   0   0   0   4   0   0   0   0   0   0   0   0   0   0   0   1  10   0   0   0   0   0  17 100 98 94 91 90 89 84 73 72 68 67 66 65 64 58 56 38 
   5   9   0   0   0   7   9   0   0  10   0   0   0   0   0   0   0   0   7   0   0   0   0   7   4   0   0   0   2   2   0  15 97 96 95 90 85 81 74 69 68 67 65 62 55 54 42 
   2   0   0   0   5   0   0   0   0   0   0   0   0   4   0   4  10   0   7   0   0   0   0   0   6   8   0   0   0   0   0  12 99 93 92 91 74 72 69 61 58 52 51 33 
   4   0   0   0   5   0   0   0   7   0   0   9   0   0   0   0   0   0   0   0   0   0   6   0   0   0   0   0   5   0   0  18 101 100 98 97 96 95 94 92 80 77 74 70 68 67 61 59 55 50 
   7   0   9   0   0   0   0   0   0   0   0   0   0   0   0   0   0   0   0   0   0   0   0   6   0   0   0   5   0   0   0  21 100 98 97 94 93 91 90 87 86 84 83 75 74 73 71 70 69 68 65 60 56 
   7   0   0   0   0   7   0   0   0   0   0   0   0   0   0   9   4   0   0   0   7   0   0   0   0   0   0   4   0   0   0  19 101 100 92 91 90 89 88 84 83 81 72 71 70 69 66 64 63 62 57 
   3   0   0   0   0   0   0   0   0   0   7   0   0   4   0   0   0   0   4  10   0   0   0   0   0   0   2   0   0   0   0  18 98 96 95 92 90 88 84 83 82 73 71 70 69 68 67 66 59 54 
   2   0   0   0   0   0   0   0   0   0   0   0   0   0   0   0   0   0   0   0   0   0   0   6  10   8   0   0   0   0   0  12 96 95 91 88 82 71 68 65 62 58 53 44 
   1   3   2   0   7   0   0   0   7   0   0   6   0   0   0   0   0   4   0   0   0   0   3   0   0   0   0   0   8   0   0  19 101 94 93 92 91 90 89 87 84 82 74 71 70 69 68 67 66 63 59 
   5   0   0   0   0   7   0   0   0   0   0   0   0   0   0   0   0   3   0   0   0   0   0   0   0   0   0   0   0   0   0  16 99 98 97 94 91 90 86 84 82 79 74 73 63 62 53 51 
   5   0   0   0   0   0   0   0   0   0   0   0   0   0   0   0   0   0   0  10   0   0   0   7   0   0   0   0   0   0   0  16 99 97 96 92 91 90 86 84 79 73 69 68 65 64 61 51 
   3   0   0   0   0   0   0   0   0   6   7   0   0   0   0   0   0   0   0   0   0   0   0   5   0   0   0   0   0   0   0  15 101 97 94 92 91 90 71 70 69 67 65 64 62 61 60 
   7   0   0  10   0   0   0   0   0   0   7   0   6   0   0   0   9   0   0   0   0   0   0   0   0   0   6   0   0   0   0  19 101 100 99 98 97 96 95 94 90 87 85 84 82 79 72 69 68 65 51 
   6   0   0   0   0   0   0   0   0   0   0   0   0   0   0   0   0   7   4   0   0   0   0   0   0   0   0  10   0   0   0  12 97 95 92 85 81 77 73 69 62 61 58 47 
   8   0   9   0   0   0   0   0   0   5   0   1   0  10   0   0   0   0   0   0   0   0   0   0   0   0   0   0   0   0   0  15 98 96 93 92 88 87 86 84 82 73 70 68 65 60 59 
   7   0   7   0   0   0   0   0   0   0   0   0   0   0   0   0   0   0   0   0   0   0   0   0   0   0   0   0   0   0   0  16 100 97 96 95 94 92 91 85 84 83 82 80 70 67 65 59 
   5   0   0   0   5   0   0   0   0   0   0   0   0   0   0   0   0   0   0   0   0   0   0   0   0   0   8   0   0  10   0  11 101 94 92 90 88 87 72 70 59 53 52 
   1   0   0   0   0   0   0   0   0   0   4   0   0  10   0   0   0   0  10   0   0   0   0   0   0   0   0   0   0   4   0  15 100 97 96 95 90 89 87 86 85 83 81 79 77 68 55 
   2   8   0   7   0  10   0   0   0   0   0   0   0   0   4   0   0   0   0   0   0   0   5   0   0   0   0   0   0   9   0  15 96 93 90 88 85 84 83 81 79 78 77 72 69 68 61 
   7   0   0   0   0   0   0   9   0   0   0  10   0   0   0   0   0   0   0   0   0   0   0   4   0   0   0   0   0   0   0   9 98 97 95 87 81 80 77 70 47 
  10   0   0   7   0   0   0   5   0   0   0   0   0   0   4   0   8   0   4   0   0   0   0   8   0   0   0   0   0   0   0   4 97 77 55 42 
   9   0   0   0   0   0   7   0   8   0   7   0   0   0   0   0   9   8   0   0   0   0   0   0   0   0   0   0   0   0   0  13 98 94 91 88 86 83 82 81 80 75 68 65 63 
   9   0   0   0   0   0   0   0   0   0   6   0   0   0   0   0   0   0   0   0   0   0   0   0   0   0   0   0   0   9   0  12 99 86 85 83 82 81 80 78 77 71 70 62 
   1   0   0   0   0   0   0   4   0   0   0   0   0   0   0   0   0   0   6   0   0   0   0   0   5   0   0   0   0   0   0  12 95 94 93 92 91 84 83 81 80 76 65 58 
   5   0   5   0   0   0   0   0   0   0   0   4   0   0   0   0   0   0   0   7   0   5   0   0   0   0   0   0   0   0   0  14 97 96 93 88 84 83 82 81 80 79 78 77 75 68 
   8   0   0   5   0   0   0   0   0   0   6   0   0   0   0   0   0   0   0   0   0   0   0   0   0   7   0  10   0   0   0  13 100 97 88 87 86 84 83 82 81 79 76 75 69 
   5   0   0   0   0   0   0   0   0   0   5   0   0   0   0   0   0   0   0   0   0   0   0   0   0   0   0   0   0   0   0   9 99 92 91 89 87 83 80 76 58 
   7   0   0   0   0   0   0   0  10   0   0   0   0   5   0   0   0   4   5   0   0   0   0   0   0   8   0   8   0   0   0  10 94 90 85 81 79 77 76 75 74 72 
   9   0   0   0   0   0   0   9   0   0   0   0   0   0   0   0   0   0   0   0   0   0   0   0   0   0   6   5   0   7   0   9 98 94 93 84 81 76 75 70 66 
   3   0   0   0   0   0   8   0   0   9   0   0   0   0   0   0   0   0   0   0   3   0   0   0   0   0   0   7   6   0   0  11 99 98 88 87 84 83 82 81 80 76 75 
   2   0   0   0   0   0   0   0   0   1   0   0   0   0   0   0   9   0   0   0   0   0   0   0   0   0   0   0   0   0   0  10 93 92 85 84 83 82 78 77 75 68 
   8   0   0   0  10   0   0   0   0   0   0   0   0   0   0   0   0   0   0   0   0   1   0   0   7   0   0   0   0   8   0  10 91 90 89 88 84 83 82 78 76 75 
   7   0   0   0   0   0   0   0   0   0   0   0   0   0  10   0   0   0   0   0   0   0   0   0   0   0   0   0   0   0   0   8 100 96 93 85 84 83 77 67 
  10   0   0   5   0   8   0   0   0   0   0   0   7   8   0   0   0   0   0   0   0   0   0   0   0   0   0  10   0   0   5   8 99 86 85 82 79 77 76 75 
   3   0   0   0   0   0   0   0   0   0   0   0   0   0   0   0   0   5   5   0   0   0   0   0   0   3   0   0   0   0   6   8 91 90 86 85 83 78 76 75 
  10   0   0   0   0   0   0   0   0   0   0   0   0   0   0   0   0   0   0   0   0   0   0   0   0   0   0   0   0   0   0   7 89 88 83 81 80 78 77 
   4   0   0   0   0   0   0   0   0   0   0   0   0   0   0   0   0   0   0   4   0  10   5   3   0   0   0   0   0   7   0   6 89 84 81 77 75 68 
   8   6   0   0   0   0   6   0   0   0   0   0   7   0   0   0   4   7   0   0   0   8   0   0   0   9   0   0   0   0   0   5 83 78 77 75 69 
   5   0   0   0   6   0   0   0   0   0   5   0   0   0   0   0   0   0   0   0   0   0   0   0   9   0   0   0   0   0   0   3 78 77 61 
   6   0   0   0   0   0   0   0   0   7   9   0   0   0   8   0   0   0   0   0   0   0   0   0   7   0   0   0   0   0   0   5 88 84 82 78 76 
   9   8   0   8   7   9   8   0   4   0   0   0   0   9   0   0   0   0  10   0   0   0   0   0   0   0   0   3   0   0   0   5 92 88 82 81 76 
   6   0   8   8   0   4   0   0   0   0   0   0   0   0   0   0   6   0   0   0   0   0   0   4   0   0   0   0   0   0   5   5 94 86 82 79 78 
   1   0   0   0   0   0   0   0   0   0   0   0   0   0   0   0   0   0   0   0   0   0   0   0   0  10   0   0   0   0   0   4 86 79 78 75 
   9   0   0   0   0   0   0   9   0   0   0   0   0   6   0   0   0   0   0   0   0   0   0   0   0   0   0   0   0   0   0   4 81 79 76 75 
   2   0   7   0   0   8   0   0   0   0   0   0   0   0   0   0   4   0   0   0   0   0   0   0   0   0   0   0   5   0   0   4 89 85 81 77 
   3   0   0   0   0   0   0   0   0   0   0   0   0   0   0   0   0   0   0   0   0   0   0   0   0   0   0   0   8   7   4   3 89 87 75 
   7   0   0   0   0   0   0   0   0  10   0   0   0   0   9   0   0   0   0   0   8   5   0   0   0   0   4   0   0   6   0   3 93 87 75 
   6   0   0   0   0   0   0   0   0   9   0   0   0   0   0   0   0   0   0   0   0   9   0   0   0   0   0   6   6   0   0   3 95 85 77 
   8   0   9   0   0   0   0   0   0   0   0   0   0   0   5   0   0   0   0   0   0   0   0   0   0   0   0   0   0   0   0   3 85 82 80 
   9   0   0   0   0   0   0   0   0   0   0   0   0   0   0   0   0   0   0   0   0   0   0   0   0   8   0   5   0   0   5   2 78 77 
   4   0   0   0   0   0   0   0   0   0   0   0   0   0   3   0   0   0   0   0   0   0   0   0   0   8   0   5   0   0   0   2 85 77 
   2   0   0   0   0   0   0   0   0   0   8   0   0   0   8   0   0   0   0   0   0   9   0   0   0   0   0   0   0   0   0   2 86 79 
   4   0   0   0   0   2   0   0   0   0   0   0  10   0   0   0   0   0   4   0   4   0   0   0   0   3   0   0   0   0   0   1 76 
   7   0   0   4   0   5   0   0   0   0   0   0   0   4   0   0   0   0   0   0   0   0   0   0   0   0   0   0   0   0   0   1 80 
   5   0   0   0   0   0   0   0   0   0   0   0   5   0   0   0   0   0   0   0   0   0  10   0   0   4   0   0   0   0   0   1 79 
   3   0   0   0   0   0   0   4   0   0   0   0   0   0   0   0   3   0   0   0   0   0   0   0   0   0   0   0   0   0   0   1 76 
   5   0   0   0   0   5   0   0   0   0   0   0   0   0   0   0   0   0   8   0   0   7   0   0   0   0   0   0   0   0   0   1 80 
  10   7   5   0   0   0   0   0   0   0   0   0   0   0   0   0   0   0   8   0   0   0   0   8   0   8   0   0   0   0   0   1 80 
   9   0   5   0   0   0   0   0   3   6   0   0   0   0   0   0   0   0   0   0   0   0   0   5   0   0   0   0   7   0   5   1 78 
   2   0   0   0   0   0   0   5   0   0   0   0   0   0   0   0   9   0   6   0   0   0   0   0   0   0   0   0   0   0   0   1 102
   2   0   0   0   0   0   0   0   0   0   8   0   0   0   0   0   0   0   0   0   0   0   0   0   0   0   0   2   0   0   0   1 102
  10   0   0   0   0   0   4   0   0   0   0   0   0   0   0   0   0   0   0   0   0   0   0   0   5   3   0   0   0   0  10   1 102
   4   0   0   5   0   0   0   0   0   3   5   0   0   0   0   0   0   0   0   0   0   0   0   0   0   6   0   0  10   0   0   1 102
   4   0   0   6   8   0   0   0   0   0   0   0   0   0   0   0   0   4   0   0   0   0   0   0   0   0  10   0   0   0   0   1 102
   1   0   0   0   0   0   0   0   0   0   0   0   0   0   0   0   4   0   0   0   0   0  10   0   0   0   0   0   0   0   0   1 102
   8   0   0   0   0   0   0   0   0   0   0   0   0   8   0   0   0   0   0   0   0   0   0   7   3   3   0   0   0   0   0   1 102
   2   0   0   0   6   0   0   0   5   0   0   0   0   0   0   0   0   8   0   0   0   0   0   0   0   0   0   0   0   0   0   1 102
   6   0   0   0   0   0   0   0   0   0   0   0   7   0   0   0   0   0   0   0   0   6   0   0   0   0   0   0   0   0  10   1 102
  10   0   0   0   0   0   0   0   0   0   7   0   0   0   2   0   0   0   0   0   0   9   8   0   7   0   0   0   0   7   0   1 102
   2   0   8   0   0   0   0   0   0   0   4   0   0   0   0   0   0   0   0   0   7   0   0   0   0   0   0   0   0   0   0   1 102
   9   0   0   0   0   0   9   0   0   0   0   5   0   3   0   0   0   7   0   0   0   0   0   0   0   3   0   6   7   3   0   1 102
   1   0   0   0   0   0   5   0   0   0   0   0   0   0   0   0   0  10   0   0   0   0   0   0   0   3   0   0   0   0   4   1 102
   2   0   0   0   4   0   0   0   0   0   0   0   0   0   0   0   0   0   0   0   0   0   0   0   0   0   0   0   7   5   0   1 102
   5   0   0   0   0   0   0   0   0   0   0  10   0   0   6  10   0   7   0   0   0   0   0   9   0   0   0   0   0   9   0   1 102
   8   0   5   0   0   0   0   0   0   0   0   0   0   0   5   0   0   8   0   0   0   0   0   0   0   0   0   0   0   0   0   1 102
   7   0   0   0   0   0   0   0   7   0   0   0   5   0   0   0   0   0   0   0   9   0   4   0   0   0   0   0   0   0   0   1 102
   6   0   0   0   0   0   0   0   0   0   0   0   0   0   0   0   0   0   0   0   0   0   0   0   9   0   0   0   0   0   0   1 102
   7   0   0   0   0   0   0   0  10   0   0   0   0   0   0   0   0   0   0   0   7   0   0   0   0   0   0   7   4   5   0   1 102
   9   0   0   0   0   5   0   0   0   2   0   0   0   0   0   0   0   0   0   0   0   0   0   0   0   0   0   0   0   0   0   1 102
   1   0   0   0   0   0   0  10   0   0   0   0   0   0   0   0   0   0   0   0   0   0   0   0   0   0   0   0   0   0   0   1 102
   7   0   0   0   0   0   6   0   0   0   0   6   0   0   0   0   0   0   0   0   0   0   6   0   0   0   0   0   6   0   0   1 102
   3   0   0   5   0   5   3   0   0   0   0   0   0   0  10   0   4   0   0   0   0   0   0   8   0   0   0   0   0   0   0   1 102
   8   0   0   7   0   0   0   0   0   0   0   0   0   0   4   0   0   0   0   0   0   0   0   0   5   0   0   0   0   0   0   1 102
   8   3   3   0   7   0   0   0   0   0   0   0   0   0   0   0   0   0   0   0   0   0   0   0   0   0   0   0   0   0   0   1 102
   3   0   0   0   0   0   0   0   0   0   0   0   0   0   0   0   6   0   0   0   0   0   0   0   0   0   0   7   0   0   0   1 102
   3   0   0   7   0   0   0   0   0   0   0   0   0   0   0   0   0   0   0   0   0   6   0   0   0   0   0   0   0   0   0   1 102
   0   0   0   0   0   0   0   0   0   0   0   0   0   0   0   0   0   0   0   0   0   0   0   0   0   0   0   0   0   0   0   0 
